(set-logic QF_NRA)
(set-info :source |Benchmarks generated from hycomp (https://es-static.fbk.eu/tools/hycomp/). BMC instances of non-linear hybrid automata taken from: Alessandro Cimatti, Sergio Mover, Stefano Tonetta, A quantifier-free SMT encoding of non-linear hybrid automata, FMCAD 2012 and Alessandro Cimatti, Sergio Mover, Stefano Tonetta, Quantier-free encoding of invariants for Hybrid Systems, Formal Methods in System Design. This instance solves a BMC problem of depth 3 and uses the quantifier free encoding with lemmas encoding. Contacts: Sergio Mover (mover@fbk.eu), Stefano Tonetta (tonettas@fbk.eu), Alessandro Cimatti (cimatti@fbk.eu).|)
(set-info :smt-lib-version 2.0)
(set-info :category "industrial")
(set-info :status unsat)
;; MathSAT API call trace
;; generated on Mon Mar 19 10:50:14 2012
(declare-fun b.delta__AT1 () Real)
(declare-fun b.EVENT.0__AT1 () Bool)
(declare-fun b.EVENT.1__AT0 () Bool)
(declare-fun b.speed_y__AT2 () Real)
(declare-fun b.EVENT.1__AT1 () Bool)
(declare-fun b.EVENT.0__AT0 () Bool)
(declare-fun b.time__AT1 () Real)
(declare-fun b.counter.2__AT2 () Bool)
(declare-fun b.speed_y__AT1 () Real)
(declare-fun b.counter.3__AT2 () Bool)
(declare-fun b.time__AT0 () Real)
(declare-fun b.y__AT0 () Real)
(declare-fun b.counter.0__AT0 () Bool)
(declare-fun b.counter.2__AT0 () Bool)
(declare-fun b.counter.1__AT0 () Bool)
(declare-fun b.event_is_timed__AT2 () Bool)
(declare-fun b.counter.1__AT1 () Bool)
(declare-fun b.counter.2__AT1 () Bool)
(declare-fun b.event_is_timed__AT3 () Bool)
(declare-fun speed_loss__AT0 () Real)
(declare-fun b.time__AT2 () Real)
(declare-fun b.y__AT3 () Real)
(declare-fun b.speed_y__AT0 () Real)
(declare-fun b.delta__AT2 () Real)
(declare-fun b.counter.0__AT3 () Bool)
(declare-fun b.event_is_timed__AT1 () Bool)
(declare-fun b.counter.0__AT2 () Bool)
(declare-fun b.EVENT.0__AT2 () Bool)
(declare-fun b.time__AT3 () Real)
(declare-fun b.event_is_timed__AT0 () Bool)
(declare-fun b.counter.1__AT3 () Bool)
(declare-fun b.counter.1__AT2 () Bool)
(declare-fun b.y__AT2 () Real)
(declare-fun b.EVENT.1__AT2 () Bool)
(declare-fun b.delta__AT3 () Real)
(declare-fun b.counter.2__AT3 () Bool)
(declare-fun b.counter.3__AT1 () Bool)
(declare-fun b.EVENT.0__AT3 () Bool)
(declare-fun b.counter.3__AT3 () Bool)
(declare-fun b.delta__AT0 () Real)
(declare-fun b.y__AT1 () Real)
(declare-fun b.EVENT.1__AT3 () Bool)
(declare-fun b.counter.0__AT1 () Bool)
(declare-fun b.counter.3__AT0 () Bool)
(declare-fun b.speed_y__AT3 () Real)
(assert (let ((.def_677 (<= b.speed_y__AT3 0.0 )))
(let ((.def_659 (* (- 49.0) b.delta__AT3)))
(let ((.def_660 (* 5.0 b.speed_y__AT3)))
(let ((.def_662 (+ .def_660 .def_659)))
(let ((.def_675 (<= .def_662 0.0 )))
(let ((.def_694 (and .def_675 .def_677)))
(let ((.def_663 (<= 0.0 .def_662)))
(let ((.def_664 (not .def_663)))
(let ((.def_657 (<= 0.0 b.speed_y__AT3)))
(let ((.def_691 (or .def_657 .def_664)))
(let ((.def_678 (not .def_677)))
(let ((.def_690 (or .def_675 .def_678)))
(let ((.def_692 (and .def_690 .def_691)))
(let ((.def_695 (and .def_692 .def_694)))
(let ((.def_689 (and .def_657 .def_663)))
(let ((.def_693 (and .def_689 .def_692)))
(let ((.def_696 (or .def_693 .def_695)))
(let ((.def_649 (* b.speed_y__AT3 b.delta__AT3)))
(let ((.def_650 (* 10.0 .def_649)))
(let ((.def_647 (* b.delta__AT3 b.delta__AT3)))
(let ((.def_648 (* (- 49.0) .def_647)))
(let ((.def_651 (+ .def_648 .def_650)))
(let ((.def_652 (* 10.0 b.y__AT3)))
(let ((.def_654 (+ .def_652 .def_651)))
(let ((.def_669 (<= .def_654 0.0 )))
(let ((.def_683 (not .def_669)))
(let ((.def_667 (<= b.y__AT3 0.0 )))
(let ((.def_684 (or .def_667 .def_683)))
(let ((.def_637 (<= 0.0 b.y__AT3)))
(let ((.def_681 (not .def_637)))
(let ((.def_655 (<= 0.0 .def_654)))
(let ((.def_682 (or .def_655 .def_681)))
(let ((.def_685 (and .def_682 .def_684)))
(let ((.def_676 (not .def_675)))
(let ((.def_679 (or .def_676 .def_678)))
(let ((.def_680 (not .def_679)))
(let ((.def_686 (or .def_680 .def_685)))
(let ((.def_671 (not .def_655)))
(let ((.def_672 (or .def_637 .def_671)))
(let ((.def_668 (not .def_667)))
(let ((.def_670 (or .def_668 .def_669)))
(let ((.def_673 (and .def_670 .def_672)))
(let ((.def_658 (not .def_657)))
(let ((.def_665 (or .def_658 .def_664)))
(let ((.def_666 (not .def_665)))
(let ((.def_674 (or .def_666 .def_673)))
(let ((.def_687 (and .def_674 .def_686)))
(let ((.def_656 (and .def_637 .def_655)))
(let ((.def_688 (and .def_656 .def_687)))
(let ((.def_697 (and .def_688 .def_696)))
(let ((.def_57 (<= speed_loss__AT0 (/ 1 2))))
(let ((.def_54 (<= (/ 1 10) speed_loss__AT0)))
(let ((.def_58 (and .def_54 .def_57)))
(let ((.def_698 (and .def_58 .def_697)))
(let ((.def_338 (not b.counter.0__AT2)))
(let ((.def_641 (or b.counter.1__AT2 .def_338)))
(let ((.def_333 (not b.counter.2__AT2)))
(let ((.def_642 (or .def_333 .def_641)))
(let ((.def_643 (or b.counter.3__AT2 .def_642)))
(let ((.def_638 (and .def_58 .def_637)))
(let ((.def_634 (not b.EVENT.0__AT3)))
(let ((.def_632 (not b.EVENT.1__AT3)))
(let ((.def_635 (or .def_632 .def_634)))
(let ((.def_519 (not b.counter.1__AT3)))
(let ((.def_4 (not b.counter.0__AT3)))
(let ((.def_625 (or .def_4 .def_519)))
(let ((.def_629 (or b.counter.3__AT3 .def_625)))
(let ((.def_626 (or b.counter.2__AT3 .def_625)))
(let ((.def_8 (not b.counter.2__AT3)))
(let ((.def_624 (or .def_4 .def_8)))
(let ((.def_627 (and .def_624 .def_626)))
(let ((.def_536 (not b.counter.3__AT3)))
(let ((.def_628 (or .def_536 .def_627)))
(let ((.def_630 (and .def_628 .def_629)))
(let ((.def_636 (and .def_630 .def_635)))
(let ((.def_639 (and .def_636 .def_638)))
(let ((.def_619 (<= 0.0 b.delta__AT2)))
(let ((.def_446 (not b.EVENT.0__AT2)))
(let ((.def_444 (not b.EVENT.1__AT2)))
(let ((.def_566 (and .def_444 .def_446)))
(let ((.def_570 (not .def_566)))
(let ((.def_620 (or .def_570 .def_619)))
(let ((.def_621 (or b.EVENT.1__AT2 .def_620)))
(let ((.def_558 (= b.counter.0__AT3 b.counter.0__AT2)))
(let ((.def_556 (= b.counter.1__AT3 b.counter.1__AT2)))
(let ((.def_554 (= b.counter.2__AT3 b.counter.2__AT2)))
(let ((.def_553 (= b.counter.3__AT3 b.counter.3__AT2)))
(let ((.def_555 (and .def_553 .def_554)))
(let ((.def_557 (and .def_555 .def_556)))
(let ((.def_559 (and .def_557 .def_558)))
(let ((.def_616 (or .def_559 .def_570)))
(let ((.def_617 (or b.EVENT.1__AT2 .def_616)))
(let ((.def_604 (* (- 10.0) b.y__AT3)))
(let ((.def_461 (* b.speed_y__AT2 b.delta__AT2)))
(let ((.def_462 (* 10.0 .def_461)))
(let ((.def_608 (+ .def_462 .def_604)))
(let ((.def_459 (* b.delta__AT2 b.delta__AT2)))
(let ((.def_460 (* (- 49.0) .def_459)))
(let ((.def_609 (+ .def_460 .def_608)))
(let ((.def_464 (* 10.0 b.y__AT2)))
(let ((.def_610 (+ .def_464 .def_609)))
(let ((.def_611 (= .def_610 0.0 )))
(let ((.def_600 (* (- 5.0) b.speed_y__AT3)))
(let ((.def_471 (* (- 49.0) b.delta__AT2)))
(let ((.def_601 (+ .def_471 .def_600)))
(let ((.def_472 (* 5.0 b.speed_y__AT2)))
(let ((.def_602 (+ .def_472 .def_601)))
(let ((.def_603 (= .def_602 0.0 )))
(let ((.def_612 (and .def_603 .def_611)))
(let ((.def_613 (or .def_570 .def_612)))
(let ((.def_564 (= b.y__AT2 b.y__AT3)))
(let ((.def_552 (= b.speed_y__AT2 b.speed_y__AT3)))
(let ((.def_597 (and .def_552 .def_564)))
(let ((.def_594 (= b.delta__AT2 0.0 )))
(let ((.def_595 (and .def_566 .def_594)))
(let ((.def_596 (not .def_595)))
(let ((.def_598 (or .def_596 .def_597)))
(let ((.def_599 (or b.EVENT.1__AT2 .def_598)))
(let ((.def_614 (and .def_599 .def_613)))
(let ((.def_576 (= b.time__AT2 b.time__AT3)))
(let ((.def_588 (and .def_564 .def_576)))
(let ((.def_589 (and .def_552 .def_588)))
(let ((.def_590 (and .def_559 .def_589)))
(let ((.def_591 (or .def_444 .def_590)))
(let ((.def_579 (* (- 1.0) b.time__AT3)))
(let ((.def_582 (+ b.delta__AT2 .def_579)))
(let ((.def_583 (+ b.time__AT2 .def_582)))
(let ((.def_584 (= .def_583 0.0 )))
(let ((.def_585 (or .def_570 .def_584)))
(let ((.def_586 (or b.EVENT.1__AT2 .def_585)))
(let ((.def_577 (or .def_566 .def_576)))
(let ((.def_578 (or b.EVENT.1__AT2 .def_577)))
(let ((.def_587 (and .def_578 .def_586)))
(let ((.def_592 (and .def_587 .def_591)))
(let ((.def_572 (= .def_570 b.event_is_timed__AT3)))
(let ((.def_569 (= b.event_is_timed__AT2 .def_566)))
(let ((.def_573 (and .def_569 .def_572)))
(let ((.def_560 (and .def_552 .def_559)))
(let ((.def_512 (= b.y__AT2 0.0 )))
(let ((.def_469 (<= 0.0 b.speed_y__AT2)))
(let ((.def_470 (not .def_469)))
(let ((.def_513 (and .def_470 .def_512)))
(let ((.def_561 (or .def_513 .def_560)))
(let ((.def_528 (or .def_4 b.counter.0__AT2)))
(let ((.def_527 (or b.counter.0__AT3 .def_338)))
(let ((.def_529 (and .def_527 .def_528)))
(let ((.def_530 (and .def_519 .def_529)))
(let ((.def_531 (or b.counter.1__AT2 .def_530)))
(let ((.def_326 (not b.counter.1__AT2)))
(let ((.def_526 (or b.counter.1__AT3 .def_326)))
(let ((.def_532 (and .def_526 .def_531)))
(let ((.def_544 (and .def_8 .def_532)))
(let ((.def_545 (or b.counter.2__AT2 .def_544)))
(let ((.def_539 (and .def_338 .def_519)))
(let ((.def_540 (or b.counter.1__AT2 .def_539)))
(let ((.def_541 (and .def_526 .def_540)))
(let ((.def_542 (and b.counter.2__AT3 .def_541)))
(let ((.def_543 (or .def_333 .def_542)))
(let ((.def_546 (and .def_543 .def_545)))
(let ((.def_547 (and b.counter.3__AT3 .def_546)))
(let ((.def_548 (or b.counter.3__AT2 .def_547)))
(let ((.def_533 (and b.counter.2__AT3 .def_532)))
(let ((.def_534 (or b.counter.2__AT2 .def_533)))
(let ((.def_522 (or b.counter.1__AT3 b.counter.1__AT2)))
(let ((.def_520 (and b.counter.0__AT3 .def_519)))
(let ((.def_521 (or .def_326 .def_520)))
(let ((.def_523 (and .def_521 .def_522)))
(let ((.def_524 (and .def_8 .def_523)))
(let ((.def_525 (or .def_333 .def_524)))
(let ((.def_535 (and .def_525 .def_534)))
(let ((.def_537 (and .def_535 .def_536)))
(let ((.def_348 (not b.counter.3__AT2)))
(let ((.def_538 (or .def_348 .def_537)))
(let ((.def_549 (and .def_538 .def_548)))
(let ((.def_515 (* (- 1.0) b.speed_y__AT2)))
(let ((.def_124 (* (- 1.0) speed_loss__AT0)))
(let ((.def_125 (+ 1.0 .def_124)))
(let ((.def_516 (* .def_125 .def_515)))
(let ((.def_518 (= .def_516 b.speed_y__AT3)))
(let ((.def_550 (and .def_518 .def_549)))
(let ((.def_514 (not .def_513)))
(let ((.def_551 (or .def_514 .def_550)))
(let ((.def_562 (and .def_551 .def_561)))
(let ((.def_565 (and .def_562 .def_564)))
(let ((.def_567 (or .def_565 .def_566)))
(let ((.def_568 (or b.EVENT.1__AT2 .def_567)))
(let ((.def_574 (and .def_568 .def_573)))
(let ((.def_593 (and .def_574 .def_592)))
(let ((.def_615 (and .def_593 .def_614)))
(let ((.def_618 (and .def_615 .def_617)))
(let ((.def_622 (and .def_618 .def_621)))
(let ((.def_623 (and .def_444 .def_622)))
(let ((.def_640 (and .def_623 .def_639)))
(let ((.def_644 (and .def_640 .def_643)))
(let ((.def_489 (<= b.speed_y__AT2 0.0 )))
(let ((.def_474 (+ .def_472 .def_471)))
(let ((.def_487 (<= .def_474 0.0 )))
(let ((.def_506 (and .def_487 .def_489)))
(let ((.def_475 (<= 0.0 .def_474)))
(let ((.def_476 (not .def_475)))
(let ((.def_503 (or .def_469 .def_476)))
(let ((.def_490 (not .def_489)))
(let ((.def_502 (or .def_487 .def_490)))
(let ((.def_504 (and .def_502 .def_503)))
(let ((.def_507 (and .def_504 .def_506)))
(let ((.def_501 (and .def_469 .def_475)))
(let ((.def_505 (and .def_501 .def_504)))
(let ((.def_508 (or .def_505 .def_507)))
(let ((.def_463 (+ .def_460 .def_462)))
(let ((.def_466 (+ .def_464 .def_463)))
(let ((.def_481 (<= .def_466 0.0 )))
(let ((.def_495 (not .def_481)))
(let ((.def_479 (<= b.y__AT2 0.0 )))
(let ((.def_496 (or .def_479 .def_495)))
(let ((.def_449 (<= 0.0 b.y__AT2)))
(let ((.def_493 (not .def_449)))
(let ((.def_467 (<= 0.0 .def_466)))
(let ((.def_494 (or .def_467 .def_493)))
(let ((.def_497 (and .def_494 .def_496)))
(let ((.def_488 (not .def_487)))
(let ((.def_491 (or .def_488 .def_490)))
(let ((.def_492 (not .def_491)))
(let ((.def_498 (or .def_492 .def_497)))
(let ((.def_483 (not .def_467)))
(let ((.def_484 (or .def_449 .def_483)))
(let ((.def_480 (not .def_479)))
(let ((.def_482 (or .def_480 .def_481)))
(let ((.def_485 (and .def_482 .def_484)))
(let ((.def_477 (or .def_470 .def_476)))
(let ((.def_478 (not .def_477)))
(let ((.def_486 (or .def_478 .def_485)))
(let ((.def_499 (and .def_486 .def_498)))
(let ((.def_468 (and .def_449 .def_467)))
(let ((.def_500 (and .def_468 .def_499)))
(let ((.def_509 (and .def_500 .def_508)))
(let ((.def_510 (and .def_58 .def_509)))
(let ((.def_143 (not b.counter.0__AT1)))
(let ((.def_453 (or b.counter.1__AT1 .def_143)))
(let ((.def_138 (not b.counter.2__AT1)))
(let ((.def_454 (or .def_138 .def_453)))
(let ((.def_455 (or b.counter.3__AT1 .def_454)))
(let ((.def_450 (and .def_58 .def_449)))
(let ((.def_447 (or .def_444 .def_446)))
(let ((.def_437 (or .def_326 .def_338)))
(let ((.def_441 (or b.counter.3__AT2 .def_437)))
(let ((.def_438 (or b.counter.2__AT2 .def_437)))
(let ((.def_436 (or .def_333 .def_338)))
(let ((.def_439 (and .def_436 .def_438)))
(let ((.def_440 (or .def_348 .def_439)))
(let ((.def_442 (and .def_440 .def_441)))
(let ((.def_448 (and .def_442 .def_447)))
(let ((.def_451 (and .def_448 .def_450)))
(let ((.def_431 (<= 0.0 b.delta__AT1)))
(let ((.def_252 (not b.EVENT.0__AT1)))
(let ((.def_250 (not b.EVENT.1__AT1)))
(let ((.def_378 (and .def_250 .def_252)))
(let ((.def_382 (not .def_378)))
(let ((.def_432 (or .def_382 .def_431)))
(let ((.def_433 (or b.EVENT.1__AT1 .def_432)))
(let ((.def_370 (= b.counter.0__AT1 b.counter.0__AT2)))
(let ((.def_368 (= b.counter.1__AT1 b.counter.1__AT2)))
(let ((.def_366 (= b.counter.2__AT1 b.counter.2__AT2)))
(let ((.def_365 (= b.counter.3__AT1 b.counter.3__AT2)))
(let ((.def_367 (and .def_365 .def_366)))
(let ((.def_369 (and .def_367 .def_368)))
(let ((.def_371 (and .def_369 .def_370)))
(let ((.def_428 (or .def_371 .def_382)))
(let ((.def_429 (or b.EVENT.1__AT1 .def_428)))
(let ((.def_416 (* (- 10.0) b.y__AT2)))
(let ((.def_267 (* b.speed_y__AT1 b.delta__AT1)))
(let ((.def_268 (* 10.0 .def_267)))
(let ((.def_420 (+ .def_268 .def_416)))
(let ((.def_265 (* b.delta__AT1 b.delta__AT1)))
(let ((.def_266 (* (- 49.0) .def_265)))
(let ((.def_421 (+ .def_266 .def_420)))
(let ((.def_270 (* 10.0 b.y__AT1)))
(let ((.def_422 (+ .def_270 .def_421)))
(let ((.def_423 (= .def_422 0.0 )))
(let ((.def_412 (* (- 5.0) b.speed_y__AT2)))
(let ((.def_277 (* (- 49.0) b.delta__AT1)))
(let ((.def_413 (+ .def_277 .def_412)))
(let ((.def_278 (* 5.0 b.speed_y__AT1)))
(let ((.def_414 (+ .def_278 .def_413)))
(let ((.def_415 (= .def_414 0.0 )))
(let ((.def_424 (and .def_415 .def_423)))
(let ((.def_425 (or .def_382 .def_424)))
(let ((.def_376 (= b.y__AT1 b.y__AT2)))
(let ((.def_364 (= b.speed_y__AT1 b.speed_y__AT2)))
(let ((.def_409 (and .def_364 .def_376)))
(let ((.def_406 (= b.delta__AT1 0.0 )))
(let ((.def_407 (and .def_378 .def_406)))
(let ((.def_408 (not .def_407)))
(let ((.def_410 (or .def_408 .def_409)))
(let ((.def_411 (or b.EVENT.1__AT1 .def_410)))
(let ((.def_426 (and .def_411 .def_425)))
(let ((.def_388 (= b.time__AT1 b.time__AT2)))
(let ((.def_400 (and .def_376 .def_388)))
(let ((.def_401 (and .def_364 .def_400)))
(let ((.def_402 (and .def_371 .def_401)))
(let ((.def_403 (or .def_250 .def_402)))
(let ((.def_391 (* (- 1.0) b.time__AT2)))
(let ((.def_394 (+ b.delta__AT1 .def_391)))
(let ((.def_395 (+ b.time__AT1 .def_394)))
(let ((.def_396 (= .def_395 0.0 )))
(let ((.def_397 (or .def_382 .def_396)))
(let ((.def_398 (or b.EVENT.1__AT1 .def_397)))
(let ((.def_389 (or .def_378 .def_388)))
(let ((.def_390 (or b.EVENT.1__AT1 .def_389)))
(let ((.def_399 (and .def_390 .def_398)))
(let ((.def_404 (and .def_399 .def_403)))
(let ((.def_384 (= .def_382 b.event_is_timed__AT2)))
(let ((.def_381 (= b.event_is_timed__AT1 .def_378)))
(let ((.def_385 (and .def_381 .def_384)))
(let ((.def_372 (and .def_364 .def_371)))
(let ((.def_318 (= b.y__AT1 0.0 )))
(let ((.def_275 (<= 0.0 b.speed_y__AT1)))
(let ((.def_276 (not .def_275)))
(let ((.def_319 (and .def_276 .def_318)))
(let ((.def_373 (or .def_319 .def_372)))
(let ((.def_339 (or b.counter.0__AT1 .def_338)))
(let ((.def_337 (or .def_143 b.counter.0__AT2)))
(let ((.def_340 (and .def_337 .def_339)))
(let ((.def_341 (and .def_326 .def_340)))
(let ((.def_342 (or b.counter.1__AT1 .def_341)))
(let ((.def_131 (not b.counter.1__AT1)))
(let ((.def_336 (or .def_131 b.counter.1__AT2)))
(let ((.def_343 (and .def_336 .def_342)))
(let ((.def_356 (and .def_333 .def_343)))
(let ((.def_357 (or b.counter.2__AT1 .def_356)))
(let ((.def_351 (and .def_143 .def_326)))
(let ((.def_352 (or b.counter.1__AT1 .def_351)))
(let ((.def_353 (and .def_336 .def_352)))
(let ((.def_354 (and b.counter.2__AT2 .def_353)))
(let ((.def_355 (or .def_138 .def_354)))
(let ((.def_358 (and .def_355 .def_357)))
(let ((.def_359 (and b.counter.3__AT2 .def_358)))
(let ((.def_360 (or b.counter.3__AT1 .def_359)))
(let ((.def_344 (and b.counter.2__AT2 .def_343)))
(let ((.def_345 (or b.counter.2__AT1 .def_344)))
(let ((.def_330 (or b.counter.1__AT1 b.counter.1__AT2)))
(let ((.def_328 (and .def_326 b.counter.0__AT2)))
(let ((.def_329 (or .def_131 .def_328)))
(let ((.def_331 (and .def_329 .def_330)))
(let ((.def_334 (and .def_331 .def_333)))
(let ((.def_335 (or .def_138 .def_334)))
(let ((.def_346 (and .def_335 .def_345)))
(let ((.def_349 (and .def_346 .def_348)))
(let ((.def_153 (not b.counter.3__AT1)))
(let ((.def_350 (or .def_153 .def_349)))
(let ((.def_361 (and .def_350 .def_360)))
(let ((.def_321 (* (- 1.0) b.speed_y__AT1)))
(let ((.def_322 (* .def_125 .def_321)))
(let ((.def_324 (= .def_322 b.speed_y__AT2)))
(let ((.def_362 (and .def_324 .def_361)))
(let ((.def_320 (not .def_319)))
(let ((.def_363 (or .def_320 .def_362)))
(let ((.def_374 (and .def_363 .def_373)))
(let ((.def_377 (and .def_374 .def_376)))
(let ((.def_379 (or .def_377 .def_378)))
(let ((.def_380 (or b.EVENT.1__AT1 .def_379)))
(let ((.def_386 (and .def_380 .def_385)))
(let ((.def_405 (and .def_386 .def_404)))
(let ((.def_427 (and .def_405 .def_426)))
(let ((.def_430 (and .def_427 .def_429)))
(let ((.def_434 (and .def_430 .def_433)))
(let ((.def_435 (and .def_250 .def_434)))
(let ((.def_452 (and .def_435 .def_451)))
(let ((.def_456 (and .def_452 .def_455)))
(let ((.def_295 (<= b.speed_y__AT1 0.0 )))
(let ((.def_280 (+ .def_278 .def_277)))
(let ((.def_293 (<= .def_280 0.0 )))
(let ((.def_312 (and .def_293 .def_295)))
(let ((.def_281 (<= 0.0 .def_280)))
(let ((.def_282 (not .def_281)))
(let ((.def_309 (or .def_275 .def_282)))
(let ((.def_296 (not .def_295)))
(let ((.def_308 (or .def_293 .def_296)))
(let ((.def_310 (and .def_308 .def_309)))
(let ((.def_313 (and .def_310 .def_312)))
(let ((.def_307 (and .def_275 .def_281)))
(let ((.def_311 (and .def_307 .def_310)))
(let ((.def_314 (or .def_311 .def_313)))
(let ((.def_269 (+ .def_266 .def_268)))
(let ((.def_272 (+ .def_270 .def_269)))
(let ((.def_287 (<= .def_272 0.0 )))
(let ((.def_301 (not .def_287)))
(let ((.def_285 (<= b.y__AT1 0.0 )))
(let ((.def_302 (or .def_285 .def_301)))
(let ((.def_255 (<= 0.0 b.y__AT1)))
(let ((.def_299 (not .def_255)))
(let ((.def_273 (<= 0.0 .def_272)))
(let ((.def_300 (or .def_273 .def_299)))
(let ((.def_303 (and .def_300 .def_302)))
(let ((.def_294 (not .def_293)))
(let ((.def_297 (or .def_294 .def_296)))
(let ((.def_298 (not .def_297)))
(let ((.def_304 (or .def_298 .def_303)))
(let ((.def_289 (not .def_273)))
(let ((.def_290 (or .def_255 .def_289)))
(let ((.def_286 (not .def_285)))
(let ((.def_288 (or .def_286 .def_287)))
(let ((.def_291 (and .def_288 .def_290)))
(let ((.def_283 (or .def_276 .def_282)))
(let ((.def_284 (not .def_283)))
(let ((.def_292 (or .def_284 .def_291)))
(let ((.def_305 (and .def_292 .def_304)))
(let ((.def_274 (and .def_255 .def_273)))
(let ((.def_306 (and .def_274 .def_305)))
(let ((.def_315 (and .def_306 .def_314)))
(let ((.def_316 (and .def_58 .def_315)))
(let ((.def_28 (not b.counter.0__AT0)))
(let ((.def_259 (or b.counter.1__AT0 .def_28)))
(let ((.def_31 (not b.counter.2__AT0)))
(let ((.def_260 (or .def_31 .def_259)))
(let ((.def_261 (or b.counter.3__AT0 .def_260)))
(let ((.def_256 (and .def_58 .def_255)))
(let ((.def_253 (or .def_250 .def_252)))
(let ((.def_243 (or .def_131 .def_143)))
(let ((.def_247 (or b.counter.3__AT1 .def_243)))
(let ((.def_244 (or b.counter.2__AT1 .def_243)))
(let ((.def_242 (or .def_138 .def_143)))
(let ((.def_245 (and .def_242 .def_244)))
(let ((.def_246 (or .def_153 .def_245)))
(let ((.def_248 (and .def_246 .def_247)))
(let ((.def_254 (and .def_248 .def_253)))
(let ((.def_257 (and .def_254 .def_256)))
(let ((.def_237 (<= 0.0 b.delta__AT0)))
(let ((.def_47 (not b.EVENT.0__AT0)))
(let ((.def_45 (not b.EVENT.1__AT0)))
(let ((.def_183 (and .def_45 .def_47)))
(let ((.def_187 (not .def_183)))
(let ((.def_238 (or .def_187 .def_237)))
(let ((.def_239 (or b.EVENT.1__AT0 .def_238)))
(let ((.def_175 (= b.counter.0__AT0 b.counter.0__AT1)))
(let ((.def_173 (= b.counter.1__AT0 b.counter.1__AT1)))
(let ((.def_171 (= b.counter.2__AT0 b.counter.2__AT1)))
(let ((.def_170 (= b.counter.3__AT0 b.counter.3__AT1)))
(let ((.def_172 (and .def_170 .def_171)))
(let ((.def_174 (and .def_172 .def_173)))
(let ((.def_176 (and .def_174 .def_175)))
(let ((.def_234 (or .def_176 .def_187)))
(let ((.def_235 (or b.EVENT.1__AT0 .def_234)))
(let ((.def_223 (* (- 10.0) b.y__AT1)))
(let ((.def_68 (* b.speed_y__AT0 b.delta__AT0)))
(let ((.def_69 (* 10.0 .def_68)))
(let ((.def_226 (+ .def_69 .def_223)))
(let ((.def_64 (* b.delta__AT0 b.delta__AT0)))
(let ((.def_67 (* (- 49.0) .def_64)))
(let ((.def_227 (+ .def_67 .def_226)))
(let ((.def_71 (* 10.0 b.y__AT0)))
(let ((.def_228 (+ .def_71 .def_227)))
(let ((.def_229 (= .def_228 0.0 )))
(let ((.def_218 (* (- 5.0) b.speed_y__AT1)))
(let ((.def_78 (* (- 49.0) b.delta__AT0)))
(let ((.def_219 (+ .def_78 .def_218)))
(let ((.def_80 (* 5.0 b.speed_y__AT0)))
(let ((.def_220 (+ .def_80 .def_219)))
(let ((.def_221 (= .def_220 0.0 )))
(let ((.def_230 (and .def_221 .def_229)))
(let ((.def_231 (or .def_187 .def_230)))
(let ((.def_181 (= b.y__AT0 b.y__AT1)))
(let ((.def_169 (= b.speed_y__AT0 b.speed_y__AT1)))
(let ((.def_214 (and .def_169 .def_181)))
(let ((.def_211 (= b.delta__AT0 0.0 )))
(let ((.def_212 (and .def_183 .def_211)))
(let ((.def_213 (not .def_212)))
(let ((.def_215 (or .def_213 .def_214)))
(let ((.def_216 (or b.EVENT.1__AT0 .def_215)))
(let ((.def_232 (and .def_216 .def_231)))
(let ((.def_193 (= b.time__AT0 b.time__AT1)))
(let ((.def_205 (and .def_181 .def_193)))
(let ((.def_206 (and .def_169 .def_205)))
(let ((.def_207 (and .def_176 .def_206)))
(let ((.def_208 (or .def_45 .def_207)))
(let ((.def_196 (* (- 1.0) b.time__AT1)))
(let ((.def_199 (+ b.delta__AT0 .def_196)))
(let ((.def_200 (+ b.time__AT0 .def_199)))
(let ((.def_201 (= .def_200 0.0 )))
(let ((.def_202 (or .def_187 .def_201)))
(let ((.def_203 (or b.EVENT.1__AT0 .def_202)))
(let ((.def_194 (or .def_183 .def_193)))
(let ((.def_195 (or b.EVENT.1__AT0 .def_194)))
(let ((.def_204 (and .def_195 .def_203)))
(let ((.def_209 (and .def_204 .def_208)))
(let ((.def_189 (= .def_187 b.event_is_timed__AT1)))
(let ((.def_186 (= b.event_is_timed__AT0 .def_183)))
(let ((.def_190 (and .def_186 .def_189)))
(let ((.def_177 (and .def_169 .def_176)))
(let ((.def_120 (= b.y__AT0 0.0 )))
(let ((.def_76 (<= 0.0 b.speed_y__AT0)))
(let ((.def_77 (not .def_76)))
(let ((.def_121 (and .def_77 .def_120)))
(let ((.def_178 (or .def_121 .def_177)))
(let ((.def_144 (or b.counter.0__AT0 .def_143)))
(let ((.def_142 (or .def_28 b.counter.0__AT1)))
(let ((.def_145 (and .def_142 .def_144)))
(let ((.def_146 (and .def_131 .def_145)))
(let ((.def_147 (or b.counter.1__AT0 .def_146)))
(let ((.def_26 (not b.counter.1__AT0)))
(let ((.def_141 (or .def_26 b.counter.1__AT1)))
(let ((.def_148 (and .def_141 .def_147)))
(let ((.def_161 (and .def_138 .def_148)))
(let ((.def_162 (or b.counter.2__AT0 .def_161)))
(let ((.def_156 (and .def_28 .def_131)))
(let ((.def_157 (or b.counter.1__AT0 .def_156)))
(let ((.def_158 (and .def_141 .def_157)))
(let ((.def_159 (and b.counter.2__AT1 .def_158)))
(let ((.def_160 (or .def_31 .def_159)))
(let ((.def_163 (and .def_160 .def_162)))
(let ((.def_164 (and b.counter.3__AT1 .def_163)))
(let ((.def_165 (or b.counter.3__AT0 .def_164)))
(let ((.def_149 (and b.counter.2__AT1 .def_148)))
(let ((.def_150 (or b.counter.2__AT0 .def_149)))
(let ((.def_135 (or b.counter.1__AT0 b.counter.1__AT1)))
(let ((.def_133 (and .def_131 b.counter.0__AT1)))
(let ((.def_134 (or .def_26 .def_133)))
(let ((.def_136 (and .def_134 .def_135)))
(let ((.def_139 (and .def_136 .def_138)))
(let ((.def_140 (or .def_31 .def_139)))
(let ((.def_151 (and .def_140 .def_150)))
(let ((.def_154 (and .def_151 .def_153)))
(let ((.def_34 (not b.counter.3__AT0)))
(let ((.def_155 (or .def_34 .def_154)))
(let ((.def_166 (and .def_155 .def_165)))
(let ((.def_126 (* (- 1.0) b.speed_y__AT0)))
(let ((.def_127 (* .def_125 .def_126)))
(let ((.def_129 (= .def_127 b.speed_y__AT1)))
(let ((.def_167 (and .def_129 .def_166)))
(let ((.def_122 (not .def_121)))
(let ((.def_168 (or .def_122 .def_167)))
(let ((.def_179 (and .def_168 .def_178)))
(let ((.def_182 (and .def_179 .def_181)))
(let ((.def_184 (or .def_182 .def_183)))
(let ((.def_185 (or b.EVENT.1__AT0 .def_184)))
(let ((.def_191 (and .def_185 .def_190)))
(let ((.def_210 (and .def_191 .def_209)))
(let ((.def_233 (and .def_210 .def_232)))
(let ((.def_236 (and .def_233 .def_235)))
(let ((.def_240 (and .def_236 .def_239)))
(let ((.def_241 (and .def_45 .def_240)))
(let ((.def_258 (and .def_241 .def_257)))
(let ((.def_262 (and .def_258 .def_261)))
(let ((.def_97 (<= b.speed_y__AT0 0.0 )))
(let ((.def_82 (+ .def_80 .def_78)))
(let ((.def_95 (<= .def_82 0.0 )))
(let ((.def_114 (and .def_95 .def_97)))
(let ((.def_83 (<= 0.0 .def_82)))
(let ((.def_84 (not .def_83)))
(let ((.def_111 (or .def_76 .def_84)))
(let ((.def_98 (not .def_97)))
(let ((.def_110 (or .def_95 .def_98)))
(let ((.def_112 (and .def_110 .def_111)))
(let ((.def_115 (and .def_112 .def_114)))
(let ((.def_109 (and .def_76 .def_83)))
(let ((.def_113 (and .def_109 .def_112)))
(let ((.def_116 (or .def_113 .def_115)))
(let ((.def_70 (+ .def_67 .def_69)))
(let ((.def_73 (+ .def_71 .def_70)))
(let ((.def_89 (<= .def_73 0.0 )))
(let ((.def_103 (not .def_89)))
(let ((.def_87 (<= b.y__AT0 0.0 )))
(let ((.def_104 (or .def_87 .def_103)))
(let ((.def_50 (<= 0.0 b.y__AT0)))
(let ((.def_101 (not .def_50)))
(let ((.def_74 (<= 0.0 .def_73)))
(let ((.def_102 (or .def_74 .def_101)))
(let ((.def_105 (and .def_102 .def_104)))
(let ((.def_96 (not .def_95)))
(let ((.def_99 (or .def_96 .def_98)))
(let ((.def_100 (not .def_99)))
(let ((.def_106 (or .def_100 .def_105)))
(let ((.def_91 (not .def_74)))
(let ((.def_92 (or .def_50 .def_91)))
(let ((.def_88 (not .def_87)))
(let ((.def_90 (or .def_88 .def_89)))
(let ((.def_93 (and .def_90 .def_92)))
(let ((.def_85 (or .def_77 .def_84)))
(let ((.def_86 (not .def_85)))
(let ((.def_94 (or .def_86 .def_93)))
(let ((.def_107 (and .def_94 .def_106)))
(let ((.def_75 (and .def_50 .def_74)))
(let ((.def_108 (and .def_75 .def_107)))
(let ((.def_117 (and .def_108 .def_116)))
(let ((.def_118 (and .def_58 .def_117)))
(let ((.def_59 (and .def_50 .def_58)))
(let ((.def_48 (or .def_45 .def_47)))
(let ((.def_38 (or .def_26 .def_28)))
(let ((.def_42 (or b.counter.3__AT0 .def_38)))
(let ((.def_39 (or b.counter.2__AT0 .def_38)))
(let ((.def_37 (or .def_28 .def_31)))
(let ((.def_40 (and .def_37 .def_39)))
(let ((.def_41 (or .def_34 .def_40)))
(let ((.def_43 (and .def_41 .def_42)))
(let ((.def_49 (and .def_43 .def_48)))
(let ((.def_60 (and .def_49 .def_59)))
(let ((.def_29 (and .def_26 .def_28)))
(let ((.def_32 (and .def_29 .def_31)))
(let ((.def_35 (and .def_32 .def_34)))
(let ((.def_23 (= b.speed_y__AT0 0.0 )))
(let ((.def_20 (= b.y__AT0 10.0 )))
(let ((.def_15 (= b.time__AT0 0.0 )))
(let ((.def_17 (and .def_15 b.event_is_timed__AT0)))
(let ((.def_21 (and .def_17 .def_20)))
(let ((.def_24 (and .def_21 .def_23)))
(let ((.def_36 (and .def_24 .def_35)))
(let ((.def_61 (and .def_36 .def_60)))
(let ((.def_6 (or .def_4 b.counter.1__AT3)))
(let ((.def_9 (or .def_6 .def_8)))
(let ((.def_11 (or .def_9 b.counter.3__AT3)))
(let ((.def_12 (not .def_11)))
(let ((.def_62 (and .def_12 .def_61)))
(let ((.def_119 (and .def_62 .def_118)))
(let ((.def_263 (and .def_119 .def_262)))
(let ((.def_317 (and .def_263 .def_316)))
(let ((.def_457 (and .def_317 .def_456)))
(let ((.def_511 (and .def_457 .def_510)))
(let ((.def_645 (and .def_511 .def_644)))
(let ((.def_699 (and .def_645 .def_698)))
.def_699)))))))))))))))))))))))))))))))))))))))))))))))))))))))))))))))))))))))))))))))))))))))))))))))))))))))))))))))))))))))))))))))))))))))))))))))))))))))))))))))))))))))))))))))))))))))))))))))))))))))))))))))))))))))))))))))))))))))))))))))))))))))))))))))))))))))))))))))))))))))))))))))))))))))))))))))))))))))))))))))))))))))))))))))))))))))))))))))))))))))))))))))))))))))))))))))))))))))))))))))))))))))))))))))))))))))))))))))))))))))))))))))))))))))))))))))))))))))))))))))))))))))))))))))))))))))))))))))))))))))))))))))))))))))))))))))))))))))))))))))))))))))))))))))))))))))))))))))))))))))))))))))))))))))))))
(check-sat)
(exit)
